39121.0
1 1 1 1 1 1 1 1 1 1 1 1 1 1 1 1 1 1 1 1 1 1 1 1 1 1 1 1 1 1 
19 61 81 98 105 153 176 188 
13 16 170 
4 29 94 126 156 175 182 190 
95 109 136 137 158 168 
10 32 43 104 106 111 167 193 
22 66 87 145 164 166 180 
35 42 55 86 91 97 192 
59 62 89 117 194 196 
37 44 54 63 78 115 119 154 185 
41 57 73 82 135 
24 80 139 162 177 179 198 
56 65 96 121 127 142 143 155 
5 71 113 114 140 184 195 
12 46 64 85 159 160 
49 67 173 
6 101 147 157 197 
21 33 39 51 53 79 125 
118 122 129 151 
0 15 20 25 40 58 70 103 
1 27 30 31 45 48 72 110 123 172 183 199 
17 36 76 133 171 
2 47 169 181 189 191 
8 18 108 141 
74 75 77 134 152 187 
23 38 50 52 107 131 146 150 163 
69 83 92 93 102 132 144 149 
120 124 128 174 
3 7 26 34 88 112 148 161 165 
9 11 14 68 90 99 100 116 130 138 186 
28 60 84 178 
